58318
1 1 1 1 1 1 1 1 1 1 1 1 1 1 1 1 1 1 1 1 1 1 1 0 1 1 1 1 1 1
19 20 1 15 2 1 8 6 6 25 9 4 8 14 9 2 7 16 16 20 13 16 4 5 17 9 5 0 3 16 4 5 7 3 2 16 7 24 26 10 1 12 12 1 20 22 12 5 22 19 17 2 24 4 17 13 2 9 14 15 17 11 13 25 0 21 5 14 9 10 15 22 2 8 5 15 13 11 3 16 5 25 11 24 20 5 15 2 24 15 19 24 0 27 29 17 0 10 11 3 6 9 27 11 27 7 17 11 13 9 25 1 9 24 7 11 18 8 11 18 20 10 29 13 1 15 21 20 5 21 10 25 12 9 16 26 5 5 19 1 2 17 27 17 6 19 11 8 11 18 8 11 5 22 4 24 0 24 12 17 26 20 19 17 11 13 2 5 19 22 17 19 24 20 11 13 2 10 27 4 20 4 28 22 28 15 29 1 28 29 16 8 26 20 8 10 26 1 27 8